\ LP format - for model browsing. Use MPS format to capture full model detail.
\ Signature: 0x4ae752e702ec47cd
Minimize
  Cmax
Subject To
 assign_0_0: y_0_0_0 + y_1_0_0 = 1
 proc_time_0_0: Ps_0_0 - 25 y_0_0_0 - 37 y_1_0_0 = 0
 assign_0_1: y_0_0_1 + y_1_0_1 = 1
 proc_time_0_1: Ps_0_1 - 32 y_0_0_1 - 24 y_1_0_1 = 0
 seq_0_0_to_1: t_0_0 + Ps_0_0 - t_0_1 <= 0
 assign_1_0: y_0_1_0 + y_1_1_0 = 1
 proc_time_1_0: Ps_1_0 - 45 y_0_1_0 - 65 y_1_1_0 = 0
 assign_1_1: y_0_1_1 + y_1_1_1 = 1
 proc_time_1_1: Ps_1_1 - 21 y_0_1_1 - 65 y_1_1_1 = 0
 seq_1_0_to_1: t_1_0 + Ps_1_0 - t_1_1 <= 0
 no_overlap1_0_0_0_0_1: t_0_0 + Ps_0_0 + 399 y_0_0_0 - t_0_1 + 399 y_0_0_1
   + 399 z_0_0_0_0_1 <= 1197
 no_overlap2_0_0_0_0_1: - t_0_0 + 399 y_0_0_0 + t_0_1 + Ps_0_1
   + 399 y_0_0_1 - 399 z_0_0_0_0_1 <= 798
 no_overlap1_0_0_0_1_0: t_0_0 + Ps_0_0 + 399 y_0_0_0 - t_1_0 + 399 y_0_1_0
   + 399 z_0_0_0_1_0 <= 1197
 no_overlap2_0_0_0_1_0: - t_0_0 + 399 y_0_0_0 + t_1_0 + Ps_1_0
   + 399 y_0_1_0 - 399 z_0_0_0_1_0 <= 798
 no_overlap1_0_0_0_1_1: t_0_0 + Ps_0_0 + 399 y_0_0_0 - t_1_1 + 399 y_0_1_1
   + 399 z_0_0_0_1_1 <= 1197
 no_overlap2_0_0_0_1_1: - t_0_0 + 399 y_0_0_0 + t_1_1 + Ps_1_1
   + 399 y_0_1_1 - 399 z_0_0_0_1_1 <= 798
 no_overlap1_0_0_1_1_0: t_0_1 + Ps_0_1 + 399 y_0_0_1 - t_1_0 + 399 y_0_1_0
   + 399 z_0_0_1_1_0 <= 1197
 no_overlap2_0_0_1_1_0: - t_0_1 + 399 y_0_0_1 + t_1_0 + Ps_1_0
   + 399 y_0_1_0 - 399 z_0_0_1_1_0 <= 798
 no_overlap1_0_0_1_1_1: t_0_1 + Ps_0_1 + 399 y_0_0_1 - t_1_1 + 399 y_0_1_1
   + 399 z_0_0_1_1_1 <= 1197
 no_overlap2_0_0_1_1_1: - t_0_1 + 399 y_0_0_1 + t_1_1 + Ps_1_1
   + 399 y_0_1_1 - 399 z_0_0_1_1_1 <= 798
 no_overlap1_0_1_0_1_1: t_1_0 + Ps_1_0 + 399 y_0_1_0 - t_1_1 + 399 y_0_1_1
   + 399 z_0_1_0_1_1 <= 1197
 no_overlap2_0_1_0_1_1: - t_1_0 + 399 y_0_1_0 + t_1_1 + Ps_1_1
   + 399 y_0_1_1 - 399 z_0_1_0_1_1 <= 798
 no_overlap1_1_0_0_0_1: t_0_0 + Ps_0_0 + 399 y_1_0_0 - t_0_1 + 399 y_1_0_1
   + 399 z_1_0_0_0_1 <= 1197
 no_overlap2_1_0_0_0_1: - t_0_0 + 399 y_1_0_0 + t_0_1 + Ps_0_1
   + 399 y_1_0_1 - 399 z_1_0_0_0_1 <= 798
 no_overlap1_1_0_0_1_0: t_0_0 + Ps_0_0 + 399 y_1_0_0 - t_1_0 + 399 y_1_1_0
   + 399 z_1_0_0_1_0 <= 1197
 no_overlap2_1_0_0_1_0: - t_0_0 + 399 y_1_0_0 + t_1_0 + Ps_1_0
   + 399 y_1_1_0 - 399 z_1_0_0_1_0 <= 798
 no_overlap1_1_0_0_1_1: t_0_0 + Ps_0_0 + 399 y_1_0_0 - t_1_1 + 399 y_1_1_1
   + 399 z_1_0_0_1_1 <= 1197
 no_overlap2_1_0_0_1_1: - t_0_0 + 399 y_1_0_0 + t_1_1 + Ps_1_1
   + 399 y_1_1_1 - 399 z_1_0_0_1_1 <= 798
 no_overlap1_1_0_1_1_0: t_0_1 + Ps_0_1 + 399 y_1_0_1 - t_1_0 + 399 y_1_1_0
   + 399 z_1_0_1_1_0 <= 1197
 no_overlap2_1_0_1_1_0: - t_0_1 + 399 y_1_0_1 + t_1_0 + Ps_1_0
   + 399 y_1_1_0 - 399 z_1_0_1_1_0 <= 798
 no_overlap1_1_0_1_1_1: t_0_1 + Ps_0_1 + 399 y_1_0_1 - t_1_1 + 399 y_1_1_1
   + 399 z_1_0_1_1_1 <= 1197
 no_overlap2_1_0_1_1_1: - t_0_1 + 399 y_1_0_1 + t_1_1 + Ps_1_1
   + 399 y_1_1_1 - 399 z_1_0_1_1_1 <= 798
 no_overlap1_1_1_0_1_1: t_1_0 + Ps_1_0 + 399 y_1_1_0 - t_1_1 + 399 y_1_1_1
   + 399 z_1_1_0_1_1 <= 1197
 no_overlap2_1_1_0_1_1: - t_1_0 + 399 y_1_1_0 + t_1_1 + Ps_1_1
   + 399 y_1_1_1 - 399 z_1_1_0_1_1 <= 798
 cmax_job_0: Cmax - t_0_1 - Ps_0_1 >= 0
 cmax_job_1: Cmax - t_1_1 - Ps_1_1 >= 0
Bounds
Binaries
 y_0_0_0 y_1_0_0 y_0_0_1 y_1_0_1 y_0_1_0 y_1_1_0 y_0_1_1 y_1_1_1
 z_0_0_0_0_1 z_0_0_0_1_0 z_0_0_0_1_1 z_0_0_1_1_0 z_0_0_1_1_1 z_0_1_0_1_1
 z_1_0_0_0_1 z_1_0_0_1_0 z_1_0_0_1_1 z_1_0_1_1_0 z_1_0_1_1_1 z_1_1_0_1_1
End
